 Code  1733
 Dimension, Fixed Cost
   100        3000
 Facility, Client, Transportation Cost
     1        7           4
     1        9           3
     1       17           3
     1       37           0
     1       41           1
     1       49           3
     1       55           2
     1       56           4
     1       57           0
     1       59           1
     2        3           1
     2        4           3
     2        9           4
     2       12           2
     2       46           3
     2       47           2
     2       48           1
     2       52           2
     2       65           0
     2       76           3
     3       13           0
     3       16           2
     3       19           1
     3       29           1
     3       49           0
     3       53           0
     3       63           1
     3       72           4
     3       78           4
     3       79           3
     4        5           3
     4        8           1
     4       13           4
     4       38           2
     4       40           4
     4       53           1
     4       68           1
     4       69           0
     4       78           3
     4       82           4
     5       31           1
     5       34           2
     5       39           3
     5       44           4
     5       47           4
     5       53           1
     5       60           2
     5       64           3
     5       66           1
     5       72           2
     6       17           3
     6       23           3
     6       44           1
     6       63           4
     6       73           4
     6       75           4
     6       77           4
     6       82           1
     6       93           3
     6       99           2
     7       26           0
     7       28           3
     7       33           4
     7       50           2
     7       56           1
     7       79           4
     7       90           0
     7       92           0
     7       96           3
     7       97           3
     8        5           2
     8       14           0
     8       15           2
     8       36           1
     8       56           0
     8       64           0
     8       65           1
     8       68           1
     8       72           0
     8       76           4
     9        5           4
     9        9           4
     9       24           1
     9       50           1
     9       51           4
     9       57           3
     9       74           4
     9       86           4
     9       88           3
     9       90           3
    10       23           3
    10       26           1
    10       62           0
    10       77           1
    10       81           0
    10       92           1
    10       94           2
    10       98           0
    10       99           1
    10      100           1
    11       12           4
    11       36           1
    11       37           3
    11       49           2
    11       62           2
    11       74           1
    11       81           3
    11       83           4
    11       88           1
    11       90           3
    12        1           3
    12       14           2
    12       16           2
    12       17           1
    12       29           3
    12       51           0
    12       61           0
    12       73           2
    12       91           2
    12       94           1
    13        1           2
    13       10           0
    13       11           0
    13       18           2
    13       34           4
    13       45           1
    13       59           0
    13       61           3
    13       62           0
    13       68           3
    14       13           2
    14       21           1
    14       22           1
    14       39           0
    14       42           4
    14       57           0
    14       69           0
    14       86           2
    14       88           2
    14       89           0
    15        2           1
    15        5           2
    15       31           2
    15       43           1
    15       58           1
    15       68           0
    15       91           4
    15       93           1
    15       95           4
    15       96           3
    16        1           3
    16        8           1
    16       19           2
    16       24           0
    16       41           4
    16       42           3
    16       55           3
    16       67           4
    16       77           0
    16       80           1
    17       11           1
    17       15           2
    17       16           1
    17       26           3
    17       34           3
    17       44           1
    17       46           4
    17       69           3
    17       85           3
    17       89           1
    18        6           1
    18       17           2
    18       19           0
    18       23           2
    18       51           1
    18       62           0
    18       71           1
    18       81           0
    18       82           3
    18       89           2
    19       24           3
    19       25           2
    19       28           4
    19       34           1
    19       41           2
    19       42           1
    19       67           3
    19       78           3
    19       80           4
    19       87           3
    20        3           0
    20        9           0
    20       15           0
    20       19           3
    20       25           2
    20       27           0
    20       30           2
    20       33           4
    20       36           0
    20       44           1
    21        2           3
    21        7           2
    21       17           3
    21       24           3
    21       32           1
    21       43           4
    21       44           0
    21       45           2
    21       54           2
    21       56           0
    22        4           1
    22       18           4
    22       21           1
    22       22           4
    22       30           3
    22       55           0
    22       58           0
    22       64           0
    22       65           3
    22       70           0
    23        5           1
    23       21           3
    23       41           3
    23       51           2
    23       57           4
    23       64           0
    23       78           1
    23       83           0
    23       84           1
    23       88           1
    24        5           2
    24        6           3
    24       18           2
    24       29           1
    24       34           4
    24       35           4
    24       41           3
    24       53           0
    24       55           1
    24       64           3
    25       14           3
    25       16           4
    25       18           1
    25       20           0
    25       28           4
    25       30           2
    25       53           4
    25       62           0
    25       73           2
    25       82           4
    26       20           3
    26       25           3
    26       26           3
    26       36           4
    26       38           2
    26       60           0
    26       66           0
    26       79           1
    26       84           3
    26       85           3
    27        2           1
    27        6           0
    27       19           0
    27       23           2
    27       32           3
    27       44           3
    27       69           1
    27       70           3
    27       76           4
    27       83           3
    28        6           2
    28       12           3
    28       32           4
    28       38           2
    28       45           0
    28       67           3
    28       90           3
    28       93           3
    28       97           0
    28       98           1
    29        5           0
    29       10           3
    29       16           2
    29       24           0
    29       90           2
    29       95           0
    29       97           0
    29       98           2
    29       99           3
    29      100           1
    30        3           4
    30       16           1
    30       22           0
    30       39           4
    30       40           2
    30       41           0
    30       53           1
    30       59           4
    30       62           0
    30       68           4
    31        4           2
    31       53           0
    31       58           4
    31       66           4
    31       68           4
    31       69           0
    31       78           3
    31       86           1
    31       90           4
    31       93           3
    32       12           0
    32       32           0
    32       39           4
    32       54           0
    32       63           0
    32       66           4
    32       84           1
    32       87           1
    32       91           0
    32       98           0
    33        2           4
    33       14           0
    33       15           4
    33       20           0
    33       27           3
    33       31           4
    33       37           3
    33       38           4
    33       52           3
    33       55           1
    34        2           4
    34        9           2
    34       12           1
    34       39           4
    34       63           0
    34       71           3
    34       72           4
    34       78           4
    34       82           1
    34       85           3
    35        9           3
    35       11           3
    35       25           3
    35       42           1
    35       52           2
    35       54           0
    35       55           4
    35       57           3
    35       63           1
    35       67           1
    36        8           1
    36       15           4
    36       29           4
    36       32           1
    36       40           2
    36       46           3
    36       57           1
    36       63           0
    36       75           2
    36       76           0
    37        3           1
    37        7           1
    37       12           0
    37       23           4
    37       29           1
    37       38           1
    37       46           0
    37       47           0
    37       48           4
    37       50           2
    38        1           3
    38       15           0
    38       31           0
    38       32           4
    38       38           0
    38       46           2
    38       84           0
    38       85           4
    38       87           2
    38       89           4
    39       10           3
    39       20           2
    39       38           1
    39       41           4
    39       43           3
    39       47           0
    39       49           4
    39       59           0
    39       60           0
    39       66           2
    40        3           4
    40        9           2
    40       11           3
    40       19           4
    40       35           1
    40       49           4
    40       52           2
    40       61           2
    40       65           2
    40       72           3
    41        1           0
    41       18           1
    41       39           1
    41       73           1
    41       89           3
    41       92           2
    41       96           4
    41       98           4
    41       99           0
    41      100           0
    42        4           4
    42       17           2
    42       21           3
    42       22           3
    42       28           3
    42       30           1
    42       44           4
    42       45           0
    42       48           3
    42       50           4
    43        3           4
    43        7           1
    43       14           1
    43       31           3
    43       43           4
    43       49           2
    43       57           3
    43       71           4
    43       73           4
    43       75           1
    44        2           0
    44        6           3
    44        9           1
    44       12           1
    44       17           0
    44       20           3
    44       45           0
    44       72           2
    44       78           3
    44       83           0
    45       23           0
    45       35           0
    45       56           0
    45       71           2
    45       84           2
    45       92           3
    45       95           3
    45       96           3
    45       98           1
    45       99           3
    46       13           4
    46       29           2
    46       33           2
    46       46           4
    46       58           2
    46       67           0
    46       77           4
    46       78           2
    46       79           1
    46       88           2
    47        7           4
    47       10           1
    47       23           0
    47       27           4
    47       28           2
    47       31           2
    47       36           3
    47       40           3
    47       71           4
    47       74           4
    48        1           0
    48       12           3
    48       14           2
    48       15           4
    48       22           0
    48       32           3
    48       58           3
    48       61           3
    48       67           1
    48       78           0
    49       55           1
    49       56           1
    49       59           0
    49       60           0
    49       77           2
    49       80           1
    49       84           4
    49       87           3
    49       92           1
    49       93           4
    50        4           1
    50        8           3
    50       26           1
    50       29           3
    50       40           1
    50       48           1
    50       79           0
    50       80           3
    50       86           3
    50       91           1
    51       10           3
    51       11           1
    51       18           3
    51       19           2
    51       25           2
    51       33           1
    51       34           2
    51       35           2
    51       51           1
    51       65           2
    52        1           3
    52        4           3
    52       10           1
    52       24           0
    52       25           0
    52       26           2
    52       37           3
    52       49           2
    52       54           2
    52       55           1
    53        3           2
    53       13           1
    53       19           4
    53       28           4
    53       52           4
    53       65           2
    53       73           1
    53       77           3
    53       95           1
    53       96           0
    54       26           1
    54       29           2
    54       36           3
    54       40           4
    54       55           4
    54       73           0
    54       84           1
    54       85           3
    54       91           0
    54       93           4
    55        4           4
    55       11           1
    55       19           0
    55       27           3
    55       33           0
    55       43           0
    55       48           2
    55       49           4
    55       51           2
    55       70           3
    56        3           2
    56       11           2
    56       12           3
    56       14           3
    56       17           0
    56       42           4
    56       60           0
    56       61           3
    56       63           4
    56       70           1
    57        8           3
    57       18           2
    57       43           4
    57       56           1
    57       57           0
    57       71           0
    57       85           0
    57       86           4
    57       90           4
    57       94           2
    58        6           0
    58       30           3
    58       38           0
    58       66           3
    58       74           1
    58       84           0
    58       86           2
    58       92           0
    58       97           3
    58       98           4
    59       11           3
    59       16           0
    59       17           0
    59       44           4
    59       46           4
    59       64           2
    59       65           0
    59       67           4
    59       73           0
    59       88           3
    60       11           4
    60       22           3
    60       25           0
    60       47           1
    60       48           2
    60       54           0
    60       55           2
    60       81           4
    60       83           4
    60       84           1
    61        7           0
    61       15           1
    61       22           0
    61       26           0
    61       32           0
    61       50           4
    61       58           2
    61       74           1
    61       77           2
    61       91           4
    62        8           3
    62       18           4
    62       54           2
    62       56           4
    62       61           3
    62       64           1
    62       65           2
    62       68           1
    62       72           3
    62       83           0
    63        1           4
    63       14           2
    63       18           1
    63       20           3
    63       27           0
    63       80           1
    63       81           2
    63       87           2
    63       91           4
    63       94           3
    64       14           3
    64       18           2
    64       39           3
    64       42           1
    64       56           1
    64       66           1
    64       70           0
    64       75           3
    64       80           3
    64       87           1
    65       47           0
    65       49           4
    65       52           1
    65       60           0
    65       75           0
    65       82           3
    65       92           1
    65       95           0
    65       96           3
    65      100           3
    66       25           0
    66       28           3
    66       39           3
    66       47           0
    66       57           1
    66       71           2
    66       76           0
    66       81           3
    66       97           0
    66      100           1
    67        2           3
    67       24           1
    67       30           0
    67       35           2
    67       51           4
    67       60           0
    67       67           1
    67       69           0
    67       72           0
    67       83           3
    68        7           0
    68       13           3
    68       35           2
    68       45           4
    68       47           2
    68       49           0
    68       64           0
    68       70           1
    68       90           0
    68       97           0
    69       12           3
    69       21           1
    69       46           1
    69       53           3
    69       62           4
    69       75           4
    69       82           2
    69       87           0
    69       90           3
    69       95           0
    70       16           1
    70       24           0
    70       25           1
    70       38           3
    70       63           3
    70       67           4
    70       74           2
    70       75           4
    70       83           4
    70       96           2
    71        7           1
    71       22           3
    71       37           0
    71       51           2
    71       59           0
    71       61           1
    71       62           4
    71       69           1
    71       76           0
    71       79           2
    72        2           4
    72       13           2
    72       37           4
    72       45           0
    72       48           2
    72       50           2
    72       53           3
    72       54           2
    72       59           1
    72       71           1
    73        6           1
    73       19           3
    73       36           4
    73       63           4
    73       85           4
    73       95           1
    73       96           1
    73       97           1
    73       99           0
    73      100           1
    74       23           2
    74       27           2
    74       34           4
    74       56           0
    74       80           2
    74       83           2
    74       85           2
    74       92           2
    74       93           0
    74       94           4
    75        3           3
    75        4           4
    75        8           0
    75       26           2
    75       32           2
    75       36           4
    75       39           2
    75       47           1
    75       48           2
    75       52           1
    76       23           2
    76       39           4
    76       65           1
    76       68           2
    76       75           0
    76       79           0
    76       81           0
    76       89           4
    76       91           1
    76       97           0
    77        4           1
    77       32           1
    77       58           3
    77       59           2
    77       68           2
    77       70           2
    77       94           4
    77       95           0
    77       99           0
    77      100           2
    78        8           1
    78       13           2
    78       20           0
    78       37           2
    78       43           2
    78       44           1
    78       59           4
    78       75           3
    78       87           2
    78       91           1
    79        5           3
    79       14           4
    79       28           3
    79       38           3
    79       44           4
    79       88           0
    79       97           2
    79       98           0
    79       99           2
    79      100           1
    80        6           3
    80       21           0
    80       33           0
    80       34           3
    80       35           4
    80       40           3
    80       41           4
    80       43           1
    80       58           0
    80       65           4
    81        9           0
    81       10           1
    81       24           0
    81       45           3
    81       54           2
    81       70           3
    81       71           1
    81       75           4
    81       92           0
    81       93           1
    82       21           1
    82       35           1
    82       48           1
    82       53           0
    82       74           3
    82       80           4
    82       81           0
    82       89           4
    82       93           2
    82       94           4
    83        7           0
    83        8           1
    83        9           2
    83       15           4
    83       36           0
    83       46           4
    83       52           2
    83       66           2
    83       69           2
    83       77           4
    84       13           3
    84       24           0
    84       27           4
    84       30           2
    84       33           2
    84       36           3
    84       51           1
    84       64           2
    84       66           0
    84       70           1
    85        3           2
    85       10           4
    85       28           2
    85       35           0
    85       37           3
    85       47           1
    85       50           1
    85       52           1
    85       73           0
    85       76           3
    86        1           4
    86        7           2
    86        8           2
    86       10           3
    86       22           0
    86       50           4
    86       52           2
    86       72           1
    86       77           0
    86       89           3
    87       29           1
    87       40           3
    87       51           2
    87       61           4
    87       77           4
    87       80           3
    87       94           2
    87       97           4
    87       99           0
    87      100           1
    88        5           4
    88        6           0
    88       21           1
    88       31           2
    88       33           3
    88       76           3
    88       83           4
    88       88           3
    88       91           2
    88       93           0
    89        2           1
    89       11           1
    89       16           3
    89       23           2
    89       30           2
    89       34           1
    89       41           0
    89       76           1
    89       87           4
    89       88           4
    90       43           0
    90       62           0
    90       64           1
    90       68           1
    90       79           1
    90       89           1
    90       90           2
    90       94           0
    90       95           2
    90       98           0
    91       13           3
    91       16           2
    91       33           4
    91       60           0
    91       63           4
    91       66           0
    91       70           1
    91       74           1
    91       85           4
    91       87           4
    92       43           1
    92       60           4
    92       62           2
    92       71           2
    92       72           2
    92       74           1
    92       78           2
    92       86           2
    92       94           3
    92       96           4
    93        5           4
    93        6           2
    93       27           0
    93       28           0
    93       37           2
    93       69           0
    93       81           3
    93       84           2
    93       85           4
    93       86           3
    94        4           0
    94       40           0
    94       42           0
    94       45           1
    94       48           2
    94       54           2
    94       57           2
    94       79           3
    94       86           1
    94       88           2
    95       26           1
    95       29           3
    95       30           1
    95       31           0
    95       35           3
    95       37           4
    95       40           1
    95       46           3
    95       58           2
    95       61           2
    96       10           1
    96       20           3
    96       21           4
    96       33           0
    96       74           2
    96       81           0
    96       82           2
    96       89           0
    96       95           2
    96       96           1
    97       21           0
    97       30           2
    97       41           4
    97       42           2
    97       61           1
    97       73           0
    97       92           4
    97       98           1
    97       99           4
    97      100           1
    98       15           4
    98       20           4
    98       25           4
    98       31           1
    98       45           3
    98       54           1
    98       69           0
    98       76           0
    98       80           1
    98       82           0
    99        2           4
    99       22           0
    99       27           2
    99       31           3
    99       34           2
    99       42           0
    99       50           2
    99       58           4
    99       67           3
    99       79           4
   100        1           1
   100       17           4
   100       20           3
   100       27           2
   100       42           2
   100       50           1
   100       59           2
   100       60           2
   100       82           2
   100       86           2
